136	32	4	60	
10	10	10	10

0	0	0	0	0	0	16	1	2	3	4	5	6	7	8	9	10	11	12	13	14	15	16
1	1	1	0	1	1	6	30	29	22	20	19	17
2	5	3	1	0	1	6	30	23	22	20	19	17
3	0	4	4	3	6	6	30	29	21	20	18	17
4	6	5	0	5	2	6	30	29	22	19	18	17
5	0	4	2	3	7	5	30	29	23	18	17
6	4	2	2	0	4	5	29	23	22	20	19
7	3	0	6	3	4	6	30	29	28	24	22	21
8	0	5	1	2	1	5	29	27	21	19	17
9	4	5	0	2	7	4	22	20	19	17
10	3	1	0	3	3	5	30	26	25	19	18
11	2	0	4	4	5	5	30	27	23	20	17
12	5	1	7	0	1	5	29	27	26	25	19
13	0	7	3	4	10	3	30	29	17
14	7	4	0	4	8	4	28	27	26	23
15	6	0	5	4	2	4	28	25	24	22
16	6	4	4	0	2	2	23	20
17	1	0	3	5	7	3	26	25	24
18	0	4	2	6	7	3	28	27	24
19	0	5	4	2	7	2	28	24
20	4	5	0	1	6	2	26	25
21	0	6	9	4	3	2	26	25
22	6	5	0	5	3	1	27
23	7	0	3	10	1	1	24
24	2	0	6	6	6	1	31
25	4	0	5	4	10	1	31
26	3	4	0	6	3	1	31
27	0	2	4	3	8	1	31
28	3	3	0	6	1	1	31
29	2	8	0	4	3	1	31
30	0	4	5	4	7	1	31
31	0	0	0	0	0	0
